
Gurobi 5.6.3 (linux64) logging started Mon Jul 27 13:38:26 2015


Gurobi 5.6.3 (linux64) logging started Mon Jul 27 13:39:08 2015


Gurobi 5.6.3 (linux64) logging started Mon Jul 27 13:39:43 2015


Gurobi 5.6.3 (linux64) logging started Mon Jul 27 13:41:56 2015


Gurobi 5.6.3 (linux64) logging started Mon Jul 27 13:43:34 2015


Gurobi 5.6.3 (linux64) logging started Mon Jul 27 13:45:32 2015


Gurobi 5.6.3 (linux64) logging started Mon Jul 27 13:45:58 2015


Gurobi 5.6.3 (linux64) logging started Mon Jul 27 13:46:21 2015


Gurobi 5.6.3 (linux64) logging started Mon Jul 27 13:51:57 2015


Gurobi 5.6.3 (linux64) logging started Mon Jul 27 13:57:27 2015


Gurobi 5.6.3 (linux64) logging started Mon Jul 27 13:59:40 2015


Gurobi 5.6.3 (linux64) logging started Mon Jul 27 14:01:17 2015


Gurobi 5.6.3 (linux64) logging started Mon Jul 27 14:02:35 2015


Gurobi 5.6.3 (linux64) logging started Mon Jul 27 14:04:12 2015


Gurobi 5.6.3 (linux64) logging started Mon Jul 27 14:08:32 2015


Gurobi 5.6.3 (linux64) logging started Mon Jul 27 14:13:04 2015


Gurobi 5.6.3 (linux64) logging started Mon Jul 27 14:29:57 2015


Gurobi 5.6.3 (linux64) logging started Mon Jul 27 14:33:07 2015


Gurobi 5.6.3 (linux64) logging started Mon Jul 27 14:33:10 2015


Gurobi 5.6.3 (linux64) logging started Tue Jul 28 11:32:17 2015


Gurobi 5.6.3 (linux64) logging started Tue Jul 28 12:38:10 2015


Gurobi 5.6.3 (linux64) logging started Wed Jul 29 10:41:53 2015


Gurobi 5.6.3 (linux64) logging started Wed Jul 29 10:43:09 2015


Gurobi 5.6.3 (linux64) logging started Wed Jul 29 10:43:44 2015


Gurobi 5.6.3 (linux64) logging started Wed Jul 29 10:45:02 2015


Gurobi 5.6.3 (linux64) logging started Wed Jul 29 10:46:42 2015


Gurobi 5.6.3 (linux64) logging started Wed Jul 29 10:49:29 2015


Gurobi 5.6.3 (linux64) logging started Wed Jul 29 10:50:01 2015


Gurobi 5.6.3 (linux64) logging started Wed Jul 29 10:51:52 2015


Gurobi 5.6.3 (linux64) logging started Wed Jul 29 11:01:55 2015


Gurobi 5.6.3 (linux64) logging started Wed Jul 29 11:05:51 2015


Gurobi 5.6.3 (linux64) logging started Wed Jul 29 11:06:48 2015


Gurobi 5.6.3 (linux64) logging started Wed Jul 29 11:07:53 2015


Gurobi 5.6.3 (linux64) logging started Wed Jul 29 11:08:55 2015


Gurobi 5.6.3 (linux64) logging started Wed Jul 29 11:11:47 2015


Gurobi 5.6.3 (linux64) logging started Wed Jul 29 11:21:41 2015


Gurobi 5.6.3 (linux64) logging started Wed Jul 29 11:26:20 2015


Gurobi 5.6.3 (linux64) logging started Wed Jul 29 11:29:20 2015


Gurobi 5.6.3 (linux64) logging started Wed Jul 29 11:29:51 2015


Gurobi 5.6.3 (linux64) logging started Wed Jul 29 11:30:43 2015


Gurobi 5.6.3 (linux64) logging started Wed Jul 29 11:34:31 2015


Gurobi 5.6.3 (linux64) logging started Wed Jul 29 11:35:08 2015


Gurobi 5.6.3 (linux64) logging started Wed Jul 29 11:43:35 2015


Gurobi 5.6.3 (linux64) logging started Wed Jul 29 11:44:23 2015


Gurobi 5.6.3 (linux64) logging started Wed Jul 29 11:49:51 2015

